10 7
3 7 0 1 1 4 2 6 3 9 4 3 5 5 6 2 7 0 8 1 9 2 5 3 4 4 1 5 1 6 3 7 0 4 1 8 2 10 3 4 4 11 5 4 6 3
2 7 0 6 1 9 2 8 3 6 4 5 5 10 6 3 7 0 2 1 10 2 4 3 5 4 9 5 8 6 4
3 7 0 15 1 4 2 8 3 4 4 8 5 7 6 1 7 0 9 1 6 2 1 3 10 4 7 5 1 6 6 7 0 11 1 2 2 7 3 5 4 2 5 3 6 14
3 7 0 2 1 8 2 5 3 8 4 9 5 4 6 3 7 0 5 1 3 2 8 3 1 4 9 5 3 6 6 7 0 1 1 2 2 6 3 4 4 1 5 7 6 2
3 7 0 7 1 1 2 8 3 5 4 4 5 3 6 9 7 0 2 1 4 2 5 3 10 4 6 5 4 6 9 7 0 5 1 1 2 7 3 1 4 6 5 6 6 2
3 7 0 8 1 7 2 4 3 56 4 9 5 8 6 4 7 0 5 1 14 2 1 3 9 4 6 5 5 6 8 7 0 3 1 5 2 2 3 5 4 4 5 5 6 7
3 7 0 5 1 6 2 3 3 6 4 5 5 15 6 2 7 0 6 1 5 2 4 3 9 4 5 5 4 6 3 7 0 9 1 8 2 2 3 8 4 6 5 1 6 7
3 7 0 6 1 1 2 4 3 1 4 10 5 4 6 3 7 0 11 1 13 2 9 3 8 4 9 5 10 6 8 7 0 4 1 2 2 7 3 8 4 3 5 10 6 7
3 7 0 12 1 5 2 4 3 5 4 4 5 5 6 5 7 0 4 1 2 2 15 3 99 4 4 5 7 6 3 7 0 9 1 5 2 11 3 2 4 5 5 4 6 2
3 7 0 9 1 4 2 13 3 10 4 7 5 6 6 8 7 0 4 1 3 2 25 3 3 4 8 5 1 6 2 7 0 1 1 2 2 6 3 11 4 13 5 3 6 5
